\Problem name: sts81.lp
\
\ Optimal value: 61.
\
Minimize
 obj: x1 + x2 + x3 + x4 + x5 + x6 + x7 + x8 + x9 + x10 + x11 + x12 + x13 + x14
 + x15 + x16 + x17 + x18 + x19 + x20 + x21 + x22 + x23 + x24 + x25 + x26 + x27
 + x28 + x29 + x30 + x31 + x32 + x33 + x34 + x35 + x36 + x37 + x38 + x39 + x40
 + x41 + x42 + x43 + x44 + x45 + x46 + x47 + x48 + x49 + x50 + x51 + x52 + x53
 + x54 + x55 + x56 + x57 + x58 + x59 + x60 + x61 + x62 + x63 + x64 + x65 + x66
 + x67 + x68 + x69 + x70 + x71 + x72 + x73 + x74 + x75 + x76 + x77 + x78 + x79
 + x80 + x81
Subject To
 c1:    x1 + x2 + x3 >= 1
 c2:    x4 + x5 + x6 >= 1
 c3:    x7 + x8 + x9 >= 1
 c4:    x1 + x4 + x7 >= 1
 c5:    x2 + x5 + x8 >= 1
 c6:    x3 + x6 + x9 >= 1
 c7:    x1 + x5 + x9 >= 1
 c8:    x1 + x6 + x8 >= 1
 c9:    x2 + x4 + x9 >= 1
 c10:   x2 + x6 + x7 >= 1
 c11:   x3 + x4 + x8 >= 1
 c12:   x3 + x5 + x7 >= 1
 c13:   x10 + x11 + x12 >= 1
 c14:   x13 + x14 + x15 >= 1
 c15:   x16 + x17 + x18 >= 1
 c16:   x10 + x13 + x16 >= 1
 c17:   x11 + x14 + x17 >= 1
 c18:   x12 + x15 + x18 >= 1
 c19:   x10 + x14 + x18 >= 1
 c20:   x10 + x15 + x17 >= 1
 c21:   x11 + x13 + x18 >= 1
 c22:   x11 + x15 + x16 >= 1
 c23:   x12 + x13 + x17 >= 1
 c24:   x12 + x14 + x16 >= 1
 c25:   x19 + x20 + x21 >= 1
 c26:   x22 + x23 + x24 >= 1
 c27:   x25 + x26 + x27 >= 1
 c28:   x19 + x22 + x25 >= 1
 c29:   x20 + x23 + x26 >= 1
 c30:   x21 + x24 + x27 >= 1
 c31:   x19 + x23 + x27 >= 1
 c32:   x19 + x24 + x26 >= 1
 c33:   x20 + x22 + x27 >= 1
 c34:   x20 + x24 + x25 >= 1
 c35:   x21 + x22 + x26 >= 1
 c36:   x21 + x23 + x25 >= 1
 c37:   x1 + x10 + x19 >= 1
 c38:   x2 + x11 + x20 >= 1
 c39:   x3 + x12 + x21 >= 1
 c40:   x4 + x13 + x22 >= 1
 c41:   x5 + x14 + x23 >= 1
 c42:   x6 + x15 + x24 >= 1
 c43:   x7 + x16 + x25 >= 1
 c44:   x8 + x17 + x26 >= 1
 c45:   x9 + x18 + x27 >= 1
 c46:   x1 + x11 + x21 >= 1
 c47:   x4 + x14 + x24 >= 1
 c48:   x7 + x17 + x27 >= 1
 c49:   x1 + x13 + x25 >= 1
 c50:   x2 + x14 + x26 >= 1
 c51:   x3 + x15 + x27 >= 1
 c52:   x1 + x14 + x27 >= 1
 c53:   x1 + x17 + x24 >= 1
 c54:   x4 + x11 + x27 >= 1
 c55:   x7 + x11 + x24 >= 1
 c56:   x4 + x17 + x21 >= 1
 c57:   x7 + x14 + x21 >= 1
 c58:   x1 + x12 + x20 >= 1
 c59:   x4 + x15 + x23 >= 1
 c60:   x7 + x18 + x26 >= 1
 c61:   x1 + x16 + x22 >= 1
 c62:   x2 + x17 + x23 >= 1
 c63:   x3 + x18 + x24 >= 1
 c64:   x1 + x18 + x23 >= 1
 c65:   x1 + x15 + x26 >= 1
 c66:   x4 + x18 + x20 >= 1
 c67:   x7 + x15 + x20 >= 1
 c68:   x4 + x12 + x26 >= 1
 c69:   x7 + x12 + x23 >= 1
 c70:   x2 + x10 + x21 >= 1
 c71:   x5 + x13 + x24 >= 1
 c72:   x8 + x16 + x27 >= 1
 c73:   x4 + x10 + x25 >= 1
 c74:   x5 + x11 + x26 >= 1
 c75:   x6 + x12 + x27 >= 1
 c76:   x5 + x10 + x27 >= 1
 c77:   x8 + x10 + x24 >= 1
 c78:   x2 + x13 + x27 >= 1
 c79:   x2 + x16 + x24 >= 1
 c80:   x8 + x13 + x21 >= 1
 c81:   x5 + x16 + x21 >= 1
 c82:   x2 + x12 + x19 >= 1
 c83:   x5 + x15 + x22 >= 1
 c84:   x8 + x18 + x25 >= 1
 c85:   x4 + x16 + x19 >= 1
 c86:   x5 + x17 + x20 >= 1
 c87:   x6 + x18 + x21 >= 1
 c88:   x5 + x18 + x19 >= 1
 c89:   x8 + x15 + x19 >= 1
 c90:   x2 + x18 + x22 >= 1
 c91:   x2 + x15 + x25 >= 1
 c92:   x8 + x12 + x22 >= 1
 c93:   x5 + x12 + x25 >= 1
 c94:   x3 + x10 + x20 >= 1
 c95:   x6 + x13 + x23 >= 1
 c96:   x9 + x16 + x26 >= 1
 c97:   x7 + x10 + x22 >= 1
 c98:   x8 + x11 + x23 >= 1
 c99:   x9 + x12 + x24 >= 1
 c100:  x9 + x10 + x23 >= 1
 c101:  x6 + x10 + x26 >= 1
 c102:  x9 + x13 + x20 >= 1
 c103:  x6 + x16 + x20 >= 1
 c104:  x3 + x13 + x26 >= 1
 c105:  x3 + x16 + x23 >= 1
 c106:  x3 + x11 + x19 >= 1
 c107:  x6 + x14 + x22 >= 1
 c108:  x9 + x17 + x25 >= 1
 c109:  x7 + x13 + x19 >= 1
 c110:  x8 + x14 + x20 >= 1
 c111:  x9 + x15 + x21 >= 1
 c112:  x9 + x14 + x19 >= 1
 c113:  x6 + x17 + x19 >= 1
 c114:  x9 + x11 + x22 >= 1
 c115:  x6 + x11 + x25 >= 1
 c116:  x3 + x17 + x22 >= 1
 c117:  x3 + x14 + x25 >= 1
 c118:  x28 + x29 + x30 >= 1
 c119:  x31 + x32 + x33 >= 1
 c120:  x34 + x35 + x36 >= 1
 c121:  x28 + x31 + x34 >= 1
 c122:  x29 + x32 + x35 >= 1
 c123:  x30 + x33 + x36 >= 1
 c124:  x28 + x32 + x36 >= 1
 c125:  x28 + x33 + x35 >= 1
 c126:  x29 + x31 + x36 >= 1
 c127:  x29 + x33 + x34 >= 1
 c128:  x30 + x31 + x35 >= 1
 c129:  x30 + x32 + x34 >= 1
 c130:  x37 + x38 + x39 >= 1
 c131:  x40 + x41 + x42 >= 1
 c132:  x43 + x44 + x45 >= 1
 c133:  x37 + x40 + x43 >= 1
 c134:  x38 + x41 + x44 >= 1
 c135:  x39 + x42 + x45 >= 1
 c136:  x37 + x41 + x45 >= 1
 c137:  x37 + x42 + x44 >= 1
 c138:  x38 + x40 + x45 >= 1
 c139:  x38 + x42 + x43 >= 1
 c140:  x39 + x40 + x44 >= 1
 c141:  x39 + x41 + x43 >= 1
 c142:  x46 + x47 + x48 >= 1
 c143:  x49 + x50 + x51 >= 1
 c144:  x52 + x53 + x54 >= 1
 c145:  x46 + x49 + x52 >= 1
 c146:  x47 + x50 + x53 >= 1
 c147:  x48 + x51 + x54 >= 1
 c148:  x46 + x50 + x54 >= 1
 c149:  x46 + x51 + x53 >= 1
 c150:  x47 + x49 + x54 >= 1
 c151:  x47 + x51 + x52 >= 1
 c152:  x48 + x49 + x53 >= 1
 c153:  x48 + x50 + x52 >= 1
 c154:  x28 + x37 + x46 >= 1
 c155:  x29 + x38 + x47 >= 1
 c156:  x30 + x39 + x48 >= 1
 c157:  x31 + x40 + x49 >= 1
 c158:  x32 + x41 + x50 >= 1
 c159:  x33 + x42 + x51 >= 1
 c160:  x34 + x43 + x52 >= 1
 c161:  x35 + x44 + x53 >= 1
 c162:  x36 + x45 + x54 >= 1
 c163:  x28 + x38 + x48 >= 1
 c164:  x31 + x41 + x51 >= 1
 c165:  x34 + x44 + x54 >= 1
 c166:  x28 + x40 + x52 >= 1
 c167:  x29 + x41 + x53 >= 1
 c168:  x30 + x42 + x54 >= 1
 c169:  x28 + x41 + x54 >= 1
 c170:  x28 + x44 + x51 >= 1
 c171:  x31 + x38 + x54 >= 1
 c172:  x34 + x38 + x51 >= 1
 c173:  x31 + x44 + x48 >= 1
 c174:  x34 + x41 + x48 >= 1
 c175:  x28 + x39 + x47 >= 1
 c176:  x31 + x42 + x50 >= 1
 c177:  x34 + x45 + x53 >= 1
 c178:  x28 + x43 + x49 >= 1
 c179:  x29 + x44 + x50 >= 1
 c180:  x30 + x45 + x51 >= 1
 c181:  x28 + x45 + x50 >= 1
 c182:  x28 + x42 + x53 >= 1
 c183:  x31 + x45 + x47 >= 1
 c184:  x34 + x42 + x47 >= 1
 c185:  x31 + x39 + x53 >= 1
 c186:  x34 + x39 + x50 >= 1
 c187:  x29 + x37 + x48 >= 1
 c188:  x32 + x40 + x51 >= 1
 c189:  x35 + x43 + x54 >= 1
 c190:  x31 + x37 + x52 >= 1
 c191:  x32 + x38 + x53 >= 1
 c192:  x33 + x39 + x54 >= 1
 c193:  x32 + x37 + x54 >= 1
 c194:  x35 + x37 + x51 >= 1
 c195:  x29 + x40 + x54 >= 1
 c196:  x29 + x43 + x51 >= 1
 c197:  x35 + x40 + x48 >= 1
 c198:  x32 + x43 + x48 >= 1
 c199:  x29 + x39 + x46 >= 1
 c200:  x32 + x42 + x49 >= 1
 c201:  x35 + x45 + x52 >= 1
 c202:  x31 + x43 + x46 >= 1
 c203:  x32 + x44 + x47 >= 1
 c204:  x33 + x45 + x48 >= 1
 c205:  x32 + x45 + x46 >= 1
 c206:  x35 + x42 + x46 >= 1
 c207:  x29 + x45 + x49 >= 1
 c208:  x29 + x42 + x52 >= 1
 c209:  x35 + x39 + x49 >= 1
 c210:  x32 + x39 + x52 >= 1
 c211:  x30 + x37 + x47 >= 1
 c212:  x33 + x40 + x50 >= 1
 c213:  x36 + x43 + x53 >= 1
 c214:  x34 + x37 + x49 >= 1
 c215:  x35 + x38 + x50 >= 1
 c216:  x36 + x39 + x51 >= 1
 c217:  x36 + x37 + x50 >= 1
 c218:  x33 + x37 + x53 >= 1
 c219:  x36 + x40 + x47 >= 1
 c220:  x33 + x43 + x47 >= 1
 c221:  x30 + x40 + x53 >= 1
 c222:  x30 + x43 + x50 >= 1
 c223:  x30 + x38 + x46 >= 1
 c224:  x33 + x41 + x49 >= 1
 c225:  x36 + x44 + x52 >= 1
 c226:  x34 + x40 + x46 >= 1
 c227:  x35 + x41 + x47 >= 1
 c228:  x36 + x42 + x48 >= 1
 c229:  x36 + x41 + x46 >= 1
 c230:  x33 + x44 + x46 >= 1
 c231:  x36 + x38 + x49 >= 1
 c232:  x33 + x38 + x52 >= 1
 c233:  x30 + x44 + x49 >= 1
 c234:  x30 + x41 + x52 >= 1
 c235:  x55 + x56 + x57 >= 1
 c236:  x58 + x59 + x60 >= 1
 c237:  x61 + x62 + x63 >= 1
 c238:  x55 + x58 + x61 >= 1
 c239:  x56 + x59 + x62 >= 1
 c240:  x57 + x60 + x63 >= 1
 c241:  x55 + x59 + x63 >= 1
 c242:  x55 + x60 + x62 >= 1
 c243:  x56 + x58 + x63 >= 1
 c244:  x56 + x60 + x61 >= 1
 c245:  x57 + x58 + x62 >= 1
 c246:  x57 + x59 + x61 >= 1
 c247:  x64 + x65 + x66 >= 1
 c248:  x67 + x68 + x69 >= 1
 c249:  x70 + x71 + x72 >= 1
 c250:  x64 + x67 + x70 >= 1
 c251:  x65 + x68 + x71 >= 1
 c252:  x66 + x69 + x72 >= 1
 c253:  x64 + x68 + x72 >= 1
 c254:  x64 + x69 + x71 >= 1
 c255:  x65 + x67 + x72 >= 1
 c256:  x65 + x69 + x70 >= 1
 c257:  x66 + x67 + x71 >= 1
 c258:  x66 + x68 + x70 >= 1
 c259:  x73 + x74 + x75 >= 1
 c260:  x76 + x77 + x78 >= 1
 c261:  x79 + x80 + x81 >= 1
 c262:  x73 + x76 + x79 >= 1
 c263:  x74 + x77 + x80 >= 1
 c264:  x75 + x78 + x81 >= 1
 c265:  x73 + x77 + x81 >= 1
 c266:  x73 + x78 + x80 >= 1
 c267:  x74 + x76 + x81 >= 1
 c268:  x74 + x78 + x79 >= 1
 c269:  x75 + x76 + x80 >= 1
 c270:  x75 + x77 + x79 >= 1
 c271:  x55 + x64 + x73 >= 1
 c272:  x56 + x65 + x74 >= 1
 c273:  x57 + x66 + x75 >= 1
 c274:  x58 + x67 + x76 >= 1
 c275:  x59 + x68 + x77 >= 1
 c276:  x60 + x69 + x78 >= 1
 c277:  x61 + x70 + x79 >= 1
 c278:  x62 + x71 + x80 >= 1
 c279:  x63 + x72 + x81 >= 1
 c280:  x55 + x65 + x75 >= 1
 c281:  x58 + x68 + x78 >= 1
 c282:  x61 + x71 + x81 >= 1
 c283:  x55 + x67 + x79 >= 1
 c284:  x56 + x68 + x80 >= 1
 c285:  x57 + x69 + x81 >= 1
 c286:  x55 + x68 + x81 >= 1
 c287:  x55 + x71 + x78 >= 1
 c288:  x58 + x65 + x81 >= 1
 c289:  x61 + x65 + x78 >= 1
 c290:  x58 + x71 + x75 >= 1
 c291:  x61 + x68 + x75 >= 1
 c292:  x55 + x66 + x74 >= 1
 c293:  x58 + x69 + x77 >= 1
 c294:  x61 + x72 + x80 >= 1
 c295:  x55 + x70 + x76 >= 1
 c296:  x56 + x71 + x77 >= 1
 c297:  x57 + x72 + x78 >= 1
 c298:  x55 + x72 + x77 >= 1
 c299:  x55 + x69 + x80 >= 1
 c300:  x58 + x72 + x74 >= 1
 c301:  x61 + x69 + x74 >= 1
 c302:  x58 + x66 + x80 >= 1
 c303:  x61 + x66 + x77 >= 1
 c304:  x56 + x64 + x75 >= 1
 c305:  x59 + x67 + x78 >= 1
 c306:  x62 + x70 + x81 >= 1
 c307:  x58 + x64 + x79 >= 1
 c308:  x59 + x65 + x80 >= 1
 c309:  x60 + x66 + x81 >= 1
 c310:  x59 + x64 + x81 >= 1
 c311:  x62 + x64 + x78 >= 1
 c312:  x56 + x67 + x81 >= 1
 c313:  x56 + x70 + x78 >= 1
 c314:  x62 + x67 + x75 >= 1
 c315:  x59 + x70 + x75 >= 1
 c316:  x56 + x66 + x73 >= 1
 c317:  x59 + x69 + x76 >= 1
 c318:  x62 + x72 + x79 >= 1
 c319:  x58 + x70 + x73 >= 1
 c320:  x59 + x71 + x74 >= 1
 c321:  x60 + x72 + x75 >= 1
 c322:  x59 + x72 + x73 >= 1
 c323:  x62 + x69 + x73 >= 1
 c324:  x56 + x72 + x76 >= 1
 c325:  x56 + x69 + x79 >= 1
 c326:  x62 + x66 + x76 >= 1
 c327:  x59 + x66 + x79 >= 1
 c328:  x57 + x64 + x74 >= 1
 c329:  x60 + x67 + x77 >= 1
 c330:  x63 + x70 + x80 >= 1
 c331:  x61 + x64 + x76 >= 1
 c332:  x62 + x65 + x77 >= 1
 c333:  x63 + x66 + x78 >= 1
 c334:  x63 + x64 + x77 >= 1
 c335:  x60 + x64 + x80 >= 1
 c336:  x63 + x67 + x74 >= 1
 c337:  x60 + x70 + x74 >= 1
 c338:  x57 + x67 + x80 >= 1
 c339:  x57 + x70 + x77 >= 1
 c340:  x57 + x65 + x73 >= 1
 c341:  x60 + x68 + x76 >= 1
 c342:  x63 + x71 + x79 >= 1
 c343:  x61 + x67 + x73 >= 1
 c344:  x62 + x68 + x74 >= 1
 c345:  x63 + x69 + x75 >= 1
 c346:  x63 + x68 + x73 >= 1
 c347:  x60 + x71 + x73 >= 1
 c348:  x63 + x65 + x76 >= 1
 c349:  x60 + x65 + x79 >= 1
 c350:  x57 + x71 + x76 >= 1
 c351:  x57 + x68 + x79 >= 1
 c352:  x1 + x28 + x55 >= 1
 c353:  x2 + x29 + x56 >= 1
 c354:  x3 + x30 + x57 >= 1
 c355:  x4 + x31 + x58 >= 1
 c356:  x5 + x32 + x59 >= 1
 c357:  x6 + x33 + x60 >= 1
 c358:  x7 + x34 + x61 >= 1
 c359:  x8 + x35 + x62 >= 1
 c360:  x9 + x36 + x63 >= 1
 c361:  x10 + x37 + x64 >= 1
 c362:  x11 + x38 + x65 >= 1
 c363:  x12 + x39 + x66 >= 1
 c364:  x13 + x40 + x67 >= 1
 c365:  x14 + x41 + x68 >= 1
 c366:  x15 + x42 + x69 >= 1
 c367:  x16 + x43 + x70 >= 1
 c368:  x17 + x44 + x71 >= 1
 c369:  x18 + x45 + x72 >= 1
 c370:  x19 + x46 + x73 >= 1
 c371:  x20 + x47 + x74 >= 1
 c372:  x21 + x48 + x75 >= 1
 c373:  x22 + x49 + x76 >= 1
 c374:  x23 + x50 + x77 >= 1
 c375:  x24 + x51 + x78 >= 1
 c376:  x25 + x52 + x79 >= 1
 c377:  x26 + x53 + x80 >= 1
 c378:  x27 + x54 + x81 >= 1
 c379:  x1 + x29 + x57 >= 1
 c380:  x4 + x32 + x60 >= 1
 c381:  x7 + x35 + x63 >= 1
 c382:  x1 + x31 + x61 >= 1
 c383:  x2 + x32 + x62 >= 1
 c384:  x3 + x33 + x63 >= 1
 c385:  x1 + x32 + x63 >= 1
 c386:  x1 + x35 + x60 >= 1
 c387:  x4 + x29 + x63 >= 1
 c388:  x7 + x29 + x60 >= 1
 c389:  x4 + x35 + x57 >= 1
 c390:  x7 + x32 + x57 >= 1
 c391:  x10 + x38 + x66 >= 1
 c392:  x13 + x41 + x69 >= 1
 c393:  x16 + x44 + x72 >= 1
 c394:  x10 + x40 + x70 >= 1
 c395:  x11 + x41 + x71 >= 1
 c396:  x12 + x42 + x72 >= 1
 c397:  x10 + x41 + x72 >= 1
 c398:  x10 + x44 + x69 >= 1
 c399:  x13 + x38 + x72 >= 1
 c400:  x16 + x38 + x69 >= 1
 c401:  x13 + x44 + x66 >= 1
 c402:  x16 + x41 + x66 >= 1
 c403:  x19 + x47 + x75 >= 1
 c404:  x22 + x50 + x78 >= 1
 c405:  x25 + x53 + x81 >= 1
 c406:  x19 + x49 + x79 >= 1
 c407:  x20 + x50 + x80 >= 1
 c408:  x21 + x51 + x81 >= 1
 c409:  x19 + x50 + x81 >= 1
 c410:  x19 + x53 + x78 >= 1
 c411:  x22 + x47 + x81 >= 1
 c412:  x25 + x47 + x78 >= 1
 c413:  x22 + x53 + x75 >= 1
 c414:  x25 + x50 + x75 >= 1
 c415:  x1 + x37 + x73 >= 1
 c416:  x2 + x38 + x74 >= 1
 c417:  x3 + x39 + x75 >= 1
 c418:  x4 + x40 + x76 >= 1
 c419:  x5 + x41 + x77 >= 1
 c420:  x6 + x42 + x78 >= 1
 c421:  x7 + x43 + x79 >= 1
 c422:  x8 + x44 + x80 >= 1
 c423:  x9 + x45 + x81 >= 1
 c424:  x1 + x38 + x75 >= 1
 c425:  x4 + x41 + x78 >= 1
 c426:  x7 + x44 + x81 >= 1
 c427:  x1 + x40 + x79 >= 1
 c428:  x2 + x41 + x80 >= 1
 c429:  x3 + x42 + x81 >= 1
 c430:  x1 + x41 + x81 >= 1
 c431:  x1 + x44 + x78 >= 1
 c432:  x4 + x38 + x81 >= 1
 c433:  x7 + x38 + x78 >= 1
 c434:  x4 + x44 + x75 >= 1
 c435:  x7 + x41 + x75 >= 1
 c436:  x1 + x47 + x66 >= 1
 c437:  x4 + x50 + x69 >= 1
 c438:  x7 + x53 + x72 >= 1
 c439:  x1 + x49 + x70 >= 1
 c440:  x2 + x50 + x71 >= 1
 c441:  x3 + x51 + x72 >= 1
 c442:  x1 + x50 + x72 >= 1
 c443:  x1 + x53 + x69 >= 1
 c444:  x4 + x47 + x72 >= 1
 c445:  x7 + x47 + x69 >= 1
 c446:  x4 + x53 + x66 >= 1
 c447:  x7 + x50 + x66 >= 1
 c448:  x10 + x29 + x75 >= 1
 c449:  x13 + x32 + x78 >= 1
 c450:  x16 + x35 + x81 >= 1
 c451:  x10 + x31 + x79 >= 1
 c452:  x11 + x32 + x80 >= 1
 c453:  x12 + x33 + x81 >= 1
 c454:  x10 + x32 + x81 >= 1
 c455:  x10 + x35 + x78 >= 1
 c456:  x13 + x29 + x81 >= 1
 c457:  x16 + x29 + x78 >= 1
 c458:  x13 + x35 + x75 >= 1
 c459:  x16 + x32 + x75 >= 1
 c460:  x19 + x29 + x66 >= 1
 c461:  x22 + x32 + x69 >= 1
 c462:  x25 + x35 + x72 >= 1
 c463:  x19 + x31 + x70 >= 1
 c464:  x20 + x32 + x71 >= 1
 c465:  x21 + x33 + x72 >= 1
 c466:  x19 + x32 + x72 >= 1
 c467:  x19 + x35 + x69 >= 1
 c468:  x22 + x29 + x72 >= 1
 c469:  x25 + x29 + x69 >= 1
 c470:  x22 + x35 + x66 >= 1
 c471:  x25 + x32 + x66 >= 1
 c472:  x10 + x47 + x57 >= 1
 c473:  x13 + x50 + x60 >= 1
 c474:  x16 + x53 + x63 >= 1
 c475:  x10 + x49 + x61 >= 1
 c476:  x11 + x50 + x62 >= 1
 c477:  x12 + x51 + x63 >= 1
 c478:  x10 + x50 + x63 >= 1
 c479:  x10 + x53 + x60 >= 1
 c480:  x13 + x47 + x63 >= 1
 c481:  x16 + x47 + x60 >= 1
 c482:  x13 + x53 + x57 >= 1
 c483:  x16 + x50 + x57 >= 1
 c484:  x19 + x38 + x57 >= 1
 c485:  x22 + x41 + x60 >= 1
 c486:  x25 + x44 + x63 >= 1
 c487:  x19 + x40 + x61 >= 1
 c488:  x20 + x41 + x62 >= 1
 c489:  x21 + x42 + x63 >= 1
 c490:  x19 + x41 + x63 >= 1
 c491:  x19 + x44 + x60 >= 1
 c492:  x22 + x38 + x63 >= 1
 c493:  x25 + x38 + x60 >= 1
 c494:  x22 + x44 + x57 >= 1
 c495:  x25 + x41 + x57 >= 1
 c496:  x1 + x30 + x56 >= 1
 c497:  x4 + x33 + x59 >= 1
 c498:  x7 + x36 + x62 >= 1
 c499:  x1 + x34 + x58 >= 1
 c500:  x2 + x35 + x59 >= 1
 c501:  x3 + x36 + x60 >= 1
 c502:  x1 + x36 + x59 >= 1
 c503:  x1 + x33 + x62 >= 1
 c504:  x4 + x36 + x56 >= 1
 c505:  x7 + x33 + x56 >= 1
 c506:  x4 + x30 + x62 >= 1
 c507:  x7 + x30 + x59 >= 1
 c508:  x10 + x39 + x65 >= 1
 c509:  x13 + x42 + x68 >= 1
 c510:  x16 + x45 + x71 >= 1
 c511:  x10 + x43 + x67 >= 1
 c512:  x11 + x44 + x68 >= 1
 c513:  x12 + x45 + x69 >= 1
 c514:  x10 + x45 + x68 >= 1
 c515:  x10 + x42 + x71 >= 1
 c516:  x13 + x45 + x65 >= 1
 c517:  x16 + x42 + x65 >= 1
 c518:  x13 + x39 + x71 >= 1
 c519:  x16 + x39 + x68 >= 1
 c520:  x19 + x48 + x74 >= 1
 c521:  x22 + x51 + x77 >= 1
 c522:  x25 + x54 + x80 >= 1
 c523:  x19 + x52 + x76 >= 1
 c524:  x20 + x53 + x77 >= 1
 c525:  x21 + x54 + x78 >= 1
 c526:  x19 + x54 + x77 >= 1
 c527:  x19 + x51 + x80 >= 1
 c528:  x22 + x54 + x74 >= 1
 c529:  x25 + x51 + x74 >= 1
 c530:  x22 + x48 + x80 >= 1
 c531:  x25 + x48 + x77 >= 1
 c532:  x1 + x46 + x64 >= 1
 c533:  x2 + x47 + x65 >= 1
 c534:  x3 + x48 + x66 >= 1
 c535:  x4 + x49 + x67 >= 1
 c536:  x5 + x50 + x68 >= 1
 c537:  x6 + x51 + x69 >= 1
 c538:  x7 + x52 + x70 >= 1
 c539:  x8 + x53 + x71 >= 1
 c540:  x9 + x54 + x72 >= 1
 c541:  x1 + x48 + x65 >= 1
 c542:  x4 + x51 + x68 >= 1
 c543:  x7 + x54 + x71 >= 1
 c544:  x1 + x52 + x67 >= 1
 c545:  x2 + x53 + x68 >= 1
 c546:  x3 + x54 + x69 >= 1
 c547:  x1 + x54 + x68 >= 1
 c548:  x1 + x51 + x71 >= 1
 c549:  x4 + x54 + x65 >= 1
 c550:  x7 + x51 + x65 >= 1
 c551:  x4 + x48 + x71 >= 1
 c552:  x7 + x48 + x68 >= 1
 c553:  x1 + x39 + x74 >= 1
 c554:  x4 + x42 + x77 >= 1
 c555:  x7 + x45 + x80 >= 1
 c556:  x1 + x43 + x76 >= 1
 c557:  x2 + x44 + x77 >= 1
 c558:  x3 + x45 + x78 >= 1
 c559:  x1 + x45 + x77 >= 1
 c560:  x1 + x42 + x80 >= 1
 c561:  x4 + x45 + x74 >= 1
 c562:  x7 + x42 + x74 >= 1
 c563:  x4 + x39 + x80 >= 1
 c564:  x7 + x39 + x77 >= 1
 c565:  x10 + x48 + x56 >= 1
 c566:  x13 + x51 + x59 >= 1
 c567:  x16 + x54 + x62 >= 1
 c568:  x10 + x52 + x58 >= 1
 c569:  x11 + x53 + x59 >= 1
 c570:  x12 + x54 + x60 >= 1
 c571:  x10 + x54 + x59 >= 1
 c572:  x10 + x51 + x62 >= 1
 c573:  x13 + x54 + x56 >= 1
 c574:  x16 + x51 + x56 >= 1
 c575:  x13 + x48 + x62 >= 1
 c576:  x16 + x48 + x59 >= 1
 c577:  x19 + x39 + x56 >= 1
 c578:  x22 + x42 + x59 >= 1
 c579:  x25 + x45 + x62 >= 1
 c580:  x19 + x43 + x58 >= 1
 c581:  x20 + x44 + x59 >= 1
 c582:  x21 + x45 + x60 >= 1
 c583:  x19 + x45 + x59 >= 1
 c584:  x19 + x42 + x62 >= 1
 c585:  x22 + x45 + x56 >= 1
 c586:  x25 + x42 + x56 >= 1
 c587:  x22 + x39 + x62 >= 1
 c588:  x25 + x39 + x59 >= 1
 c589:  x10 + x30 + x74 >= 1
 c590:  x13 + x33 + x77 >= 1
 c591:  x16 + x36 + x80 >= 1
 c592:  x10 + x34 + x76 >= 1
 c593:  x11 + x35 + x77 >= 1
 c594:  x12 + x36 + x78 >= 1
 c595:  x10 + x36 + x77 >= 1
 c596:  x10 + x33 + x80 >= 1
 c597:  x13 + x36 + x74 >= 1
 c598:  x16 + x33 + x74 >= 1
 c599:  x13 + x30 + x80 >= 1
 c600:  x16 + x30 + x77 >= 1
 c601:  x19 + x30 + x65 >= 1
 c602:  x22 + x33 + x68 >= 1
 c603:  x25 + x36 + x71 >= 1
 c604:  x19 + x34 + x67 >= 1
 c605:  x20 + x35 + x68 >= 1
 c606:  x21 + x36 + x69 >= 1
 c607:  x19 + x36 + x68 >= 1
 c608:  x19 + x33 + x71 >= 1
 c609:  x22 + x36 + x65 >= 1
 c610:  x25 + x33 + x65 >= 1
 c611:  x22 + x30 + x71 >= 1
 c612:  x25 + x30 + x68 >= 1
 c613:  x2 + x28 + x57 >= 1
 c614:  x5 + x31 + x60 >= 1
 c615:  x8 + x34 + x63 >= 1
 c616:  x4 + x28 + x61 >= 1
 c617:  x5 + x29 + x62 >= 1
 c618:  x6 + x30 + x63 >= 1
 c619:  x5 + x28 + x63 >= 1
 c620:  x8 + x28 + x60 >= 1
 c621:  x2 + x31 + x63 >= 1
 c622:  x2 + x34 + x60 >= 1
 c623:  x8 + x31 + x57 >= 1
 c624:  x5 + x34 + x57 >= 1
 c625:  x11 + x37 + x66 >= 1
 c626:  x14 + x40 + x69 >= 1
 c627:  x17 + x43 + x72 >= 1
 c628:  x13 + x37 + x70 >= 1
 c629:  x14 + x38 + x71 >= 1
 c630:  x15 + x39 + x72 >= 1
 c631:  x14 + x37 + x72 >= 1
 c632:  x17 + x37 + x69 >= 1
 c633:  x11 + x40 + x72 >= 1
 c634:  x11 + x43 + x69 >= 1
 c635:  x17 + x40 + x66 >= 1
 c636:  x14 + x43 + x66 >= 1
 c637:  x20 + x46 + x75 >= 1
 c638:  x23 + x49 + x78 >= 1
 c639:  x26 + x52 + x81 >= 1
 c640:  x22 + x46 + x79 >= 1
 c641:  x23 + x47 + x80 >= 1
 c642:  x24 + x48 + x81 >= 1
 c643:  x23 + x46 + x81 >= 1
 c644:  x26 + x46 + x78 >= 1
 c645:  x20 + x49 + x81 >= 1
 c646:  x20 + x52 + x78 >= 1
 c647:  x26 + x49 + x75 >= 1
 c648:  x23 + x52 + x75 >= 1
 c649:  x10 + x28 + x73 >= 1
 c650:  x11 + x29 + x74 >= 1
 c651:  x12 + x30 + x75 >= 1
 c652:  x13 + x31 + x76 >= 1
 c653:  x14 + x32 + x77 >= 1
 c654:  x15 + x33 + x78 >= 1
 c655:  x16 + x34 + x79 >= 1
 c656:  x17 + x35 + x80 >= 1
 c657:  x18 + x36 + x81 >= 1
 c658:  x11 + x28 + x75 >= 1
 c659:  x14 + x31 + x78 >= 1
 c660:  x17 + x34 + x81 >= 1
 c661:  x13 + x28 + x79 >= 1
 c662:  x14 + x29 + x80 >= 1
 c663:  x15 + x30 + x81 >= 1
 c664:  x14 + x28 + x81 >= 1
 c665:  x17 + x28 + x78 >= 1
 c666:  x11 + x31 + x81 >= 1
 c667:  x11 + x34 + x78 >= 1
 c668:  x17 + x31 + x75 >= 1
 c669:  x14 + x34 + x75 >= 1
 c670:  x20 + x28 + x66 >= 1
 c671:  x23 + x31 + x69 >= 1
 c672:  x26 + x34 + x72 >= 1
 c673:  x22 + x28 + x70 >= 1
 c674:  x23 + x29 + x71 >= 1
 c675:  x24 + x30 + x72 >= 1
 c676:  x23 + x28 + x72 >= 1
 c677:  x26 + x28 + x69 >= 1
 c678:  x20 + x31 + x72 >= 1
 c679:  x20 + x34 + x69 >= 1
 c680:  x26 + x31 + x66 >= 1
 c681:  x23 + x34 + x66 >= 1
 c682:  x2 + x37 + x75 >= 1
 c683:  x5 + x40 + x78 >= 1
 c684:  x8 + x43 + x81 >= 1
 c685:  x4 + x37 + x79 >= 1
 c686:  x5 + x38 + x80 >= 1
 c687:  x6 + x39 + x81 >= 1
 c688:  x5 + x37 + x81 >= 1
 c689:  x8 + x37 + x78 >= 1
 c690:  x2 + x40 + x81 >= 1
 c691:  x2 + x43 + x78 >= 1
 c692:  x8 + x40 + x75 >= 1
 c693:  x5 + x43 + x75 >= 1
 c694:  x2 + x46 + x66 >= 1
 c695:  x5 + x49 + x69 >= 1
 c696:  x8 + x52 + x72 >= 1
 c697:  x4 + x46 + x70 >= 1
 c698:  x5 + x47 + x71 >= 1
 c699:  x6 + x48 + x72 >= 1
 c700:  x5 + x46 + x72 >= 1
 c701:  x8 + x46 + x69 >= 1
 c702:  x2 + x49 + x72 >= 1
 c703:  x2 + x52 + x69 >= 1
 c704:  x8 + x49 + x66 >= 1
 c705:  x5 + x52 + x66 >= 1
 c706:  x20 + x37 + x57 >= 1
 c707:  x23 + x40 + x60 >= 1
 c708:  x26 + x43 + x63 >= 1
 c709:  x22 + x37 + x61 >= 1
 c710:  x23 + x38 + x62 >= 1
 c711:  x24 + x39 + x63 >= 1
 c712:  x23 + x37 + x63 >= 1
 c713:  x26 + x37 + x60 >= 1
 c714:  x20 + x40 + x63 >= 1
 c715:  x20 + x43 + x60 >= 1
 c716:  x26 + x40 + x57 >= 1
 c717:  x23 + x43 + x57 >= 1
 c718:  x11 + x46 + x57 >= 1
 c719:  x14 + x49 + x60 >= 1
 c720:  x17 + x52 + x63 >= 1
 c721:  x13 + x46 + x61 >= 1
 c722:  x14 + x47 + x62 >= 1
 c723:  x15 + x48 + x63 >= 1
 c724:  x14 + x46 + x63 >= 1
 c725:  x17 + x46 + x60 >= 1
 c726:  x11 + x49 + x63 >= 1
 c727:  x11 + x52 + x60 >= 1
 c728:  x17 + x49 + x57 >= 1
 c729:  x14 + x52 + x57 >= 1
 c730:  x2 + x30 + x55 >= 1
 c731:  x5 + x33 + x58 >= 1
 c732:  x8 + x36 + x61 >= 1
 c733:  x4 + x34 + x55 >= 1
 c734:  x5 + x35 + x56 >= 1
 c735:  x6 + x36 + x57 >= 1
 c736:  x5 + x36 + x55 >= 1
 c737:  x8 + x33 + x55 >= 1
 c738:  x2 + x36 + x58 >= 1
 c739:  x2 + x33 + x61 >= 1
 c740:  x8 + x30 + x58 >= 1
 c741:  x5 + x30 + x61 >= 1
 c742:  x11 + x39 + x64 >= 1
 c743:  x14 + x42 + x67 >= 1
 c744:  x17 + x45 + x70 >= 1
 c745:  x13 + x43 + x64 >= 1
 c746:  x14 + x44 + x65 >= 1
 c747:  x15 + x45 + x66 >= 1
 c748:  x14 + x45 + x64 >= 1
 c749:  x17 + x42 + x64 >= 1
 c750:  x11 + x45 + x67 >= 1
 c751:  x11 + x42 + x70 >= 1
 c752:  x17 + x39 + x67 >= 1
 c753:  x14 + x39 + x70 >= 1
 c754:  x20 + x48 + x73 >= 1
 c755:  x23 + x51 + x76 >= 1
 c756:  x26 + x54 + x79 >= 1
 c757:  x22 + x52 + x73 >= 1
 c758:  x23 + x53 + x74 >= 1
 c759:  x24 + x54 + x75 >= 1
 c760:  x23 + x54 + x73 >= 1
 c761:  x26 + x51 + x73 >= 1
 c762:  x20 + x54 + x76 >= 1
 c763:  x20 + x51 + x79 >= 1
 c764:  x26 + x48 + x76 >= 1
 c765:  x23 + x48 + x79 >= 1
 c766:  x10 + x46 + x55 >= 1
 c767:  x11 + x47 + x56 >= 1
 c768:  x12 + x48 + x57 >= 1
 c769:  x13 + x49 + x58 >= 1
 c770:  x14 + x50 + x59 >= 1
 c771:  x15 + x51 + x60 >= 1
 c772:  x16 + x52 + x61 >= 1
 c773:  x17 + x53 + x62 >= 1
 c774:  x18 + x54 + x63 >= 1
 c775:  x11 + x48 + x55 >= 1
 c776:  x14 + x51 + x58 >= 1
 c777:  x17 + x54 + x61 >= 1
 c778:  x13 + x52 + x55 >= 1
 c779:  x14 + x53 + x56 >= 1
 c780:  x15 + x54 + x57 >= 1
 c781:  x14 + x54 + x55 >= 1
 c782:  x17 + x51 + x55 >= 1
 c783:  x11 + x54 + x58 >= 1
 c784:  x11 + x51 + x61 >= 1
 c785:  x17 + x48 + x58 >= 1
 c786:  x14 + x48 + x61 >= 1
 c787:  x20 + x39 + x55 >= 1
 c788:  x23 + x42 + x58 >= 1
 c789:  x26 + x45 + x61 >= 1
 c790:  x22 + x43 + x55 >= 1
 c791:  x23 + x44 + x56 >= 1
 c792:  x24 + x45 + x57 >= 1
 c793:  x23 + x45 + x55 >= 1
 c794:  x26 + x42 + x55 >= 1
 c795:  x20 + x45 + x58 >= 1
 c796:  x20 + x42 + x61 >= 1
 c797:  x26 + x39 + x58 >= 1
 c798:  x23 + x39 + x61 >= 1
 c799:  x2 + x48 + x64 >= 1
 c800:  x5 + x51 + x67 >= 1
 c801:  x8 + x54 + x70 >= 1
 c802:  x4 + x52 + x64 >= 1
 c803:  x5 + x53 + x65 >= 1
 c804:  x6 + x54 + x66 >= 1
 c805:  x5 + x54 + x64 >= 1
 c806:  x8 + x51 + x64 >= 1
 c807:  x2 + x54 + x67 >= 1
 c808:  x2 + x51 + x70 >= 1
 c809:  x8 + x48 + x67 >= 1
 c810:  x5 + x48 + x70 >= 1
 c811:  x2 + x39 + x73 >= 1
 c812:  x5 + x42 + x76 >= 1
 c813:  x8 + x45 + x79 >= 1
 c814:  x4 + x43 + x73 >= 1
 c815:  x5 + x44 + x74 >= 1
 c816:  x6 + x45 + x75 >= 1
 c817:  x5 + x45 + x73 >= 1
 c818:  x8 + x42 + x73 >= 1
 c819:  x2 + x45 + x76 >= 1
 c820:  x2 + x42 + x79 >= 1
 c821:  x8 + x39 + x76 >= 1
 c822:  x5 + x39 + x79 >= 1
 c823:  x20 + x30 + x64 >= 1
 c824:  x23 + x33 + x67 >= 1
 c825:  x26 + x36 + x70 >= 1
 c826:  x22 + x34 + x64 >= 1
 c827:  x23 + x35 + x65 >= 1
 c828:  x24 + x36 + x66 >= 1
 c829:  x23 + x36 + x64 >= 1
 c830:  x26 + x33 + x64 >= 1
 c831:  x20 + x36 + x67 >= 1
 c832:  x20 + x33 + x70 >= 1
 c833:  x26 + x30 + x67 >= 1
 c834:  x23 + x30 + x70 >= 1
 c835:  x11 + x30 + x73 >= 1
 c836:  x14 + x33 + x76 >= 1
 c837:  x17 + x36 + x79 >= 1
 c838:  x13 + x34 + x73 >= 1
 c839:  x14 + x35 + x74 >= 1
 c840:  x15 + x36 + x75 >= 1
 c841:  x14 + x36 + x73 >= 1
 c842:  x17 + x33 + x73 >= 1
 c843:  x11 + x36 + x76 >= 1
 c844:  x11 + x33 + x79 >= 1
 c845:  x17 + x30 + x76 >= 1
 c846:  x14 + x30 + x79 >= 1
 c847:  x3 + x28 + x56 >= 1
 c848:  x6 + x31 + x59 >= 1
 c849:  x9 + x34 + x62 >= 1
 c850:  x7 + x28 + x58 >= 1
 c851:  x8 + x29 + x59 >= 1
 c852:  x9 + x30 + x60 >= 1
 c853:  x9 + x28 + x59 >= 1
 c854:  x6 + x28 + x62 >= 1
 c855:  x9 + x31 + x56 >= 1
 c856:  x6 + x34 + x56 >= 1
 c857:  x3 + x31 + x62 >= 1
 c858:  x3 + x34 + x59 >= 1
 c859:  x12 + x37 + x65 >= 1
 c860:  x15 + x40 + x68 >= 1
 c861:  x18 + x43 + x71 >= 1
 c862:  x16 + x37 + x67 >= 1
 c863:  x17 + x38 + x68 >= 1
 c864:  x18 + x39 + x69 >= 1
 c865:  x18 + x37 + x68 >= 1
 c866:  x15 + x37 + x71 >= 1
 c867:  x18 + x40 + x65 >= 1
 c868:  x15 + x43 + x65 >= 1
 c869:  x12 + x40 + x71 >= 1
 c870:  x12 + x43 + x68 >= 1
 c871:  x21 + x46 + x74 >= 1
 c872:  x24 + x49 + x77 >= 1
 c873:  x27 + x52 + x80 >= 1
 c874:  x25 + x46 + x76 >= 1
 c875:  x26 + x47 + x77 >= 1
 c876:  x27 + x48 + x78 >= 1
 c877:  x27 + x46 + x77 >= 1
 c878:  x24 + x46 + x80 >= 1
 c879:  x27 + x49 + x74 >= 1
 c880:  x24 + x52 + x74 >= 1
 c881:  x21 + x49 + x80 >= 1
 c882:  x21 + x52 + x77 >= 1
 c883:  x19 + x28 + x64 >= 1
 c884:  x20 + x29 + x65 >= 1
 c885:  x21 + x30 + x66 >= 1
 c886:  x22 + x31 + x67 >= 1
 c887:  x23 + x32 + x68 >= 1
 c888:  x24 + x33 + x69 >= 1
 c889:  x25 + x34 + x70 >= 1
 c890:  x26 + x35 + x71 >= 1
 c891:  x27 + x36 + x72 >= 1
 c892:  x21 + x28 + x65 >= 1
 c893:  x24 + x31 + x68 >= 1
 c894:  x27 + x34 + x71 >= 1
 c895:  x25 + x28 + x67 >= 1
 c896:  x26 + x29 + x68 >= 1
 c897:  x27 + x30 + x69 >= 1
 c898:  x27 + x28 + x68 >= 1
 c899:  x24 + x28 + x71 >= 1
 c900:  x27 + x31 + x65 >= 1
 c901:  x24 + x34 + x65 >= 1
 c902:  x21 + x31 + x71 >= 1
 c903:  x21 + x34 + x68 >= 1
 c904:  x12 + x28 + x74 >= 1
 c905:  x15 + x31 + x77 >= 1
 c906:  x18 + x34 + x80 >= 1
 c907:  x16 + x28 + x76 >= 1
 c908:  x17 + x29 + x77 >= 1
 c909:  x18 + x30 + x78 >= 1
 c910:  x18 + x28 + x77 >= 1
 c911:  x15 + x28 + x80 >= 1
 c912:  x18 + x31 + x74 >= 1
 c913:  x15 + x34 + x74 >= 1
 c914:  x12 + x31 + x80 >= 1
 c915:  x12 + x34 + x77 >= 1
 c916:  x21 + x37 + x56 >= 1
 c917:  x24 + x40 + x59 >= 1
 c918:  x27 + x43 + x62 >= 1
 c919:  x25 + x37 + x58 >= 1
 c920:  x26 + x38 + x59 >= 1
 c921:  x27 + x39 + x60 >= 1
 c922:  x27 + x37 + x59 >= 1
 c923:  x24 + x37 + x62 >= 1
 c924:  x27 + x40 + x56 >= 1
 c925:  x24 + x43 + x56 >= 1
 c926:  x21 + x40 + x62 >= 1
 c927:  x21 + x43 + x59 >= 1
 c928:  x12 + x46 + x56 >= 1
 c929:  x15 + x49 + x59 >= 1
 c930:  x18 + x52 + x62 >= 1
 c931:  x16 + x46 + x58 >= 1
 c932:  x17 + x47 + x59 >= 1
 c933:  x18 + x48 + x60 >= 1
 c934:  x18 + x46 + x59 >= 1
 c935:  x15 + x46 + x62 >= 1
 c936:  x18 + x49 + x56 >= 1
 c937:  x15 + x52 + x56 >= 1
 c938:  x12 + x49 + x62 >= 1
 c939:  x12 + x52 + x59 >= 1
 c940:  x3 + x37 + x74 >= 1
 c941:  x6 + x40 + x77 >= 1
 c942:  x9 + x43 + x80 >= 1
 c943:  x7 + x37 + x76 >= 1
 c944:  x8 + x38 + x77 >= 1
 c945:  x9 + x39 + x78 >= 1
 c946:  x9 + x37 + x77 >= 1
 c947:  x6 + x37 + x80 >= 1
 c948:  x9 + x40 + x74 >= 1
 c949:  x6 + x43 + x74 >= 1
 c950:  x3 + x40 + x80 >= 1
 c951:  x3 + x43 + x77 >= 1
 c952:  x3 + x46 + x65 >= 1
 c953:  x6 + x49 + x68 >= 1
 c954:  x9 + x52 + x71 >= 1
 c955:  x7 + x46 + x67 >= 1
 c956:  x8 + x47 + x68 >= 1
 c957:  x9 + x48 + x69 >= 1
 c958:  x9 + x46 + x68 >= 1
 c959:  x6 + x46 + x71 >= 1
 c960:  x9 + x49 + x65 >= 1
 c961:  x6 + x52 + x65 >= 1
 c962:  x3 + x49 + x71 >= 1
 c963:  x3 + x52 + x68 >= 1
 c964:  x3 + x29 + x55 >= 1
 c965:  x6 + x32 + x58 >= 1
 c966:  x9 + x35 + x61 >= 1
 c967:  x7 + x31 + x55 >= 1
 c968:  x8 + x32 + x56 >= 1
 c969:  x9 + x33 + x57 >= 1
 c970:  x9 + x32 + x55 >= 1
 c971:  x6 + x35 + x55 >= 1
 c972:  x9 + x29 + x58 >= 1
 c973:  x6 + x29 + x61 >= 1
 c974:  x3 + x35 + x58 >= 1
 c975:  x3 + x32 + x61 >= 1
 c976:  x12 + x38 + x64 >= 1
 c977:  x15 + x41 + x67 >= 1
 c978:  x18 + x44 + x70 >= 1
 c979:  x16 + x40 + x64 >= 1
 c980:  x17 + x41 + x65 >= 1
 c981:  x18 + x42 + x66 >= 1
 c982:  x18 + x41 + x64 >= 1
 c983:  x15 + x44 + x64 >= 1
 c984:  x18 + x38 + x67 >= 1
 c985:  x15 + x38 + x70 >= 1
 c986:  x12 + x44 + x67 >= 1
 c987:  x12 + x41 + x70 >= 1
 c988:  x21 + x47 + x73 >= 1
 c989:  x24 + x50 + x76 >= 1
 c990:  x27 + x53 + x79 >= 1
 c991:  x25 + x49 + x73 >= 1
 c992:  x26 + x50 + x74 >= 1
 c993:  x27 + x51 + x75 >= 1
 c994:  x27 + x50 + x73 >= 1
 c995:  x24 + x53 + x73 >= 1
 c996:  x27 + x47 + x76 >= 1
 c997:  x24 + x47 + x79 >= 1
 c998:  x21 + x53 + x76 >= 1
 c999:  x21 + x50 + x79 >= 1
 c1000: x19 + x37 + x55 >= 1
 c1001: x20 + x38 + x56 >= 1
 c1002: x21 + x39 + x57 >= 1
 c1003: x22 + x40 + x58 >= 1
 c1004: x23 + x41 + x59 >= 1
 c1005: x24 + x42 + x60 >= 1
 c1006: x25 + x43 + x61 >= 1
 c1007: x26 + x44 + x62 >= 1
 c1008: x27 + x45 + x63 >= 1
 c1009: x21 + x38 + x55 >= 1
 c1010: x24 + x41 + x58 >= 1
 c1011: x27 + x44 + x61 >= 1
 c1012: x25 + x40 + x55 >= 1
 c1013: x26 + x41 + x56 >= 1
 c1014: x27 + x42 + x57 >= 1
 c1015: x27 + x41 + x55 >= 1
 c1016: x24 + x44 + x55 >= 1
 c1017: x27 + x38 + x58 >= 1
 c1018: x24 + x38 + x61 >= 1
 c1019: x21 + x44 + x58 >= 1
 c1020: x21 + x41 + x61 >= 1
 c1021: x12 + x47 + x55 >= 1
 c1022: x15 + x50 + x58 >= 1
 c1023: x18 + x53 + x61 >= 1
 c1024: x16 + x49 + x55 >= 1
 c1025: x17 + x50 + x56 >= 1
 c1026: x18 + x51 + x57 >= 1
 c1027: x18 + x50 + x55 >= 1
 c1028: x15 + x53 + x55 >= 1
 c1029: x18 + x47 + x58 >= 1
 c1030: x15 + x47 + x61 >= 1
 c1031: x12 + x53 + x58 >= 1
 c1032: x12 + x50 + x61 >= 1
 c1033: x21 + x29 + x64 >= 1
 c1034: x24 + x32 + x67 >= 1
 c1035: x27 + x35 + x70 >= 1
 c1036: x25 + x31 + x64 >= 1
 c1037: x26 + x32 + x65 >= 1
 c1038: x27 + x33 + x66 >= 1
 c1039: x27 + x32 + x64 >= 1
 c1040: x24 + x35 + x64 >= 1
 c1041: x27 + x29 + x67 >= 1
 c1042: x24 + x29 + x70 >= 1
 c1043: x21 + x35 + x67 >= 1
 c1044: x21 + x32 + x70 >= 1
 c1045: x12 + x29 + x73 >= 1
 c1046: x15 + x32 + x76 >= 1
 c1047: x18 + x35 + x79 >= 1
 c1048: x16 + x31 + x73 >= 1
 c1049: x17 + x32 + x74 >= 1
 c1050: x18 + x33 + x75 >= 1
 c1051: x18 + x32 + x73 >= 1
 c1052: x15 + x35 + x73 >= 1
 c1053: x18 + x29 + x76 >= 1
 c1054: x15 + x29 + x79 >= 1
 c1055: x12 + x35 + x76 >= 1
 c1056: x12 + x32 + x79 >= 1
 c1057: x3 + x47 + x64 >= 1
 c1058: x6 + x50 + x67 >= 1
 c1059: x9 + x53 + x70 >= 1
 c1060: x7 + x49 + x64 >= 1
 c1061: x8 + x50 + x65 >= 1
 c1062: x9 + x51 + x66 >= 1
 c1063: x9 + x50 + x64 >= 1
 c1064: x6 + x53 + x64 >= 1
 c1065: x9 + x47 + x67 >= 1
 c1066: x6 + x47 + x70 >= 1
 c1067: x3 + x53 + x67 >= 1
 c1068: x3 + x50 + x70 >= 1
 c1069: x3 + x38 + x73 >= 1
 c1070: x6 + x41 + x76 >= 1
 c1071: x9 + x44 + x79 >= 1
 c1072: x7 + x40 + x73 >= 1
 c1073: x8 + x41 + x74 >= 1
 c1074: x9 + x42 + x75 >= 1
 c1075: x9 + x41 + x73 >= 1
 c1076: x6 + x44 + x73 >= 1
 c1077: x9 + x38 + x76 >= 1
 c1078: x6 + x38 + x79 >= 1
 c1079: x3 + x44 + x76 >= 1
 c1080: x3 + x41 + x79 >= 1
Bounds
 0 <= x1 <= 1
 0 <= x2 <= 1
 0 <= x3 <= 1
 0 <= x4 <= 1
 0 <= x5 <= 1
 0 <= x6 <= 1
 0 <= x7 <= 1
 0 <= x8 <= 1
 0 <= x9 <= 1
 0 <= x10 <= 1
 0 <= x11 <= 1
 0 <= x12 <= 1
 0 <= x13 <= 1
 0 <= x14 <= 1
 0 <= x15 <= 1
 0 <= x16 <= 1
 0 <= x17 <= 1
 0 <= x18 <= 1
 0 <= x19 <= 1
 0 <= x20 <= 1
 0 <= x21 <= 1
 0 <= x22 <= 1
 0 <= x23 <= 1
 0 <= x24 <= 1
 0 <= x25 <= 1
 0 <= x26 <= 1
 0 <= x27 <= 1
 0 <= x28 <= 1
 0 <= x29 <= 1
 0 <= x30 <= 1
 0 <= x31 <= 1
 0 <= x32 <= 1
 0 <= x33 <= 1
 0 <= x34 <= 1
 0 <= x35 <= 1
 0 <= x36 <= 1
 0 <= x37 <= 1
 0 <= x38 <= 1
 0 <= x39 <= 1
 0 <= x40 <= 1
 0 <= x41 <= 1
 0 <= x42 <= 1
 0 <= x43 <= 1
 0 <= x44 <= 1
 0 <= x45 <= 1
 0 <= x46 <= 1
 0 <= x47 <= 1
 0 <= x48 <= 1
 0 <= x49 <= 1
 0 <= x50 <= 1
 0 <= x51 <= 1
 0 <= x52 <= 1
 0 <= x53 <= 1
 0 <= x54 <= 1
 0 <= x55 <= 1
 0 <= x56 <= 1
 0 <= x57 <= 1
 0 <= x58 <= 1
 0 <= x59 <= 1
 0 <= x60 <= 1
 0 <= x61 <= 1
 0 <= x62 <= 1
 0 <= x63 <= 1
 0 <= x64 <= 1
 0 <= x65 <= 1
 0 <= x66 <= 1
 0 <= x67 <= 1
 0 <= x68 <= 1
 0 <= x69 <= 1
 0 <= x70 <= 1
 0 <= x71 <= 1
 0 <= x72 <= 1
 0 <= x73 <= 1
 0 <= x74 <= 1
 0 <= x75 <= 1
 0 <= x76 <= 1
 0 <= x77 <= 1
 0 <= x78 <= 1
 0 <= x79 <= 1
 0 <= x80 <= 1
 0 <= x81 <= 1
Binaries
 x1  x2  x3  x4  x5  x6  x7  x8  x9  x10  x11  x12  x13  x14  x15  x16  x17 
 x18  x19  x20  x21  x22  x23  x24  x25  x26  x27  x28  x29  x30  x31  x32 
 x33  x34  x35  x36  x37  x38  x39  x40  x41  x42  x43  x44  x45  x46  x47 
 x48  x49  x50  x51  x52  x53  x54  x55  x56  x57  x58  x59  x60  x61  x62 
 x63  x64  x65  x66  x67  x68  x69  x70  x71  x72  x73  x74  x75  x76  x77 
 x78  x79  x80  x81 
End
